
Gurobi 7.0.2 (linux64, Python) logging started Sat 04 Mar 2017 06:58:11 PM EST


Gurobi 7.0.2 (linux64, Python) logging started Sat 04 Mar 2017 06:59:10 PM EST


Gurobi 7.0.2 (linux64, Python) logging started Sat 04 Mar 2017 06:59:23 PM EST


Gurobi 7.0.2 (linux64, Python) logging started Sat 04 Mar 2017 07:36:04 PM EST


Gurobi 7.0.2 (linux64, Python) logging started Sat 04 Mar 2017 07:37:53 PM EST


Gurobi 7.0.2 (linux64, Python) logging started Sat 04 Mar 2017 07:39:29 PM EST

